p tw 103 113
1 2
2 16
3 7
4 5
5 6
7 8
8 9
9 10
10 11
11 12
12 13
13 14
14 15
15 17
16 27
17 18
18 19
19 20
20 21
21 22
22 23
23 24
24 25
25 26
26 28
26 29
27 38
28 5
29 30
30 31
30 42
31 32
32 33
33 34
34 35
35 36
36 37
37 39
38 49
39 40
40 41
41 22
42 43
43 44
44 45
44 84
45 46
46 47
47 48
48 50
49 60
50 51
50 62
51 52
52 53
53 54
54 55
55 56
56 57
57 58
58 59
59 61
60 71
60 3
61 22
62 63
63 64
64 65
65 66
66 67
67 68
67 75
68 69
69 70
70 72
71 82
72 73
73 74
74 22
75 76
76 77
77 78
78 79
79 80
80 81
80 22
81 83
82 93
82 25
83 22
84 85
85 86
86 87
86 95
87 88
88 89
88 22
89 90
90 91
91 92
92 94
93 102
94 95
94 22
95 96
96 97
97 98
98 99
99 100
100 101
101 22
102 103
103 4
